QBPP_HJ*_30_025_20_1
30 91 24
24 43 42 43 17 24 11 32 14 35 32 36 36 48 26 1 29 22 37 36 30 35 39 42 17 14 39 16 48 35
    0    0    0    0   26   25    0    0    0  -26    0    0    0    0    0    0    0    0    0    0  -20    8    0    0    0  -38   25    0    0    0
    0    0    0    0    0    0    0    0    0    0    0    0    0    0    0    0  -50    5   34    0    0    0    0   34   29   45    0   47  -38    0
    0    0    0    0  -30  -48  -28    0    0    0   37    0  -42    0   16    0    0    0   16    0    0    3    0    0    0    0    0    0    0    0
    0    0    0    0    0    0    0  -37  -45    0    0    0    0    0    0  -24    0    0  -48    0  -37   49    0   -9    0    0    0    0    0    0
   26    0  -30    0    0    0    0    0    0    0    0    0    0    0    0    0    0    0    5    0    0    0    0    0    0    0   43    0    0   -9
   25    0  -48    0    0    0   35    0    0    0    0    0    0    0    0    0    0    0    0    1    0    0    0    0   22    0    0  -18    0    0
    0    0  -28    0    0   35    0    0    0    0    0    0    0    0    0    0   34    0    0  -10    0    0    0   37  -29    0  -11    0    0   11
    0    0    0  -37    0    0    0    0    0    0  -10    0    0  -16    0    0   17   -5    0    0    0    0    0    0   -9    0    0    0    0    0
    0    0    0  -45    0    0    0    0    0    0    0    0    0   43  -16    0    0    0    0  -37    0    0    0    0    0    0    0    6    0   36
  -26    0    0    0    0    0    0    0    0    0    0    0    0    0    0   14  -41    0    0    0   31    0  -21  -45    0  -40    0    0    0    0
    0    0   37    0    0    0    0  -10    0    0    0   47    0    0    0    0    0    0    0  -30   14    0  -22    2    0    0    0    0    0    0
    0    0    0    0    0    0    0    0    0    0   47    0    0    0    0    0    0   27    0    0    0    0    0    0   -6   -5  -31    0    0    0
    0    0  -42    0    0    0    0    0    0    0    0    0    0    0    0    9    0    0   -6   47    0    0   29   21    0    0    0  -12    0    0
    0    0    0    0    0    0    0  -16   43    0    0    0    0    0    0    0    0    0    0   34    0    0    0   34  -28    0    0    0  -27    0
    0    0   16    0    0    0    0    0  -16    0    0    0    0    0    0   43    0   18    0  -13    0    0    0    0    0    0  -47    0    0    0
    0    0    0  -24    0    0    0    0    0   14    0    0    9    0   43    0    0  -39    0  -13    0    0    0   -7    0    0    0   41    0    0
    0  -50    0    0    0    0   34   17    0  -41    0    0    0    0    0    0    0    0   40    0    0    0    0    0    0    0    0    0    0   30
    0    5    0    0    0    0    0   -5    0    0    0   27    0    0   18  -39    0    0   16  -18    0  -46    0    0    1    0    6    0    0    0
    0   34   16  -48    5    0    0    0    0    0    0    0   -6    0    0    0   40   16    0    0    0    0    0    0    0    0    0    0    0    0
    0    0    0    0    0    1  -10    0  -37    0  -30    0   47   34  -13  -13    0  -18    0    0    0    0   25  -18    0  -27  -34    0    0   31
  -20    0    0  -37    0    0    0    0    0   31   14    0    0    0    0    0    0    0    0    0    0    0    3    0    0    0    0   47    0    0
    8    0    3   49    0    0    0    0    0    0    0    0    0    0    0    0    0  -46    0    0    0    0    0   32    0    0   -4    0    0    0
    0    0    0    0    0    0    0    0    0  -21  -22    0   29    0    0    0    0    0    0   25    3    0    0  -21    0   42    0    0    0    0
    0   34    0   -9    0    0   37    0    0  -45    2    0   21   34    0   -7    0    0    0  -18    0   32  -21    0   32  -46    0    0    0    0
    0   29    0    0    0   22  -29   -9    0    0    0   -6    0  -28    0    0    0    1    0    0    0    0    0   32    0    0    0    0  -28    0
  -38   45    0    0    0    0    0    0    0  -40    0   -5    0    0    0    0    0    0    0  -27    0    0   42  -46    0    0    0    0   17    0
   25    0    0    0   43    0  -11    0    0    0    0  -31    0    0  -47    0    0    6    0  -34    0   -4    0    0    0    0    0    0   14    0
    0   47    0    0    0  -18    0    0    6    0    0    0  -12    0    0   41    0    0    0    0   47    0    0    0    0    0    0    0    0    0
    0  -38    0    0    0    0    0    0    0    0    0    0    0  -27    0    0    0    0    0    0    0    0    0    0  -28   17   14    0    0    0
    0    0    0    0   -9    0   11    0   36    0    0    0    0    0    0    0   30    0    0   31    0    0    0    0    0    0    0    0    0    0
